
ENMAX = 500 
PREC = Accurate
ALGO = Fast
NELM = 100
ISMEAR = 0
SIGMA = 1E-2

geometry

EDIFF  = 1E-7
EDIFFG = -1E-2
NSW = 500
IBRION = 1
ISIF = 2

functional
IVDW = 12

ISPIN = 2
