Mo3 S6
1.0
   1.5921519154827339   -2.7576880109842050    0.0000000000000000
   1.5921519154827339    2.7576880109842050    0.0000000000000000
   0.0000000000000000    0.0000000000000000   19.4462951388160832
Mo S
3 6
direct
   0.6666666666666661    0.3333333333333330    0.3331083733333330 Mo4+
   0.3333333333333330    0.6666666666666661    0.6664417066666660 Mo4+
   0.0000000000000000    0.0000000000000000    0.9997750400000001 Mo4+
   0.3333333333333330    0.6666666666666661    0.0795968866666660 S2-
   0.0000000000000000    0.0000000000000000    0.2532957400000000 S2-
   0.0000000000000000    0.0000000000000000    0.4129302200000000 S2-
   0.6666666666666661    0.3333333333333330    0.5866290733333330 S2-
   0.6666666666666661    0.3333333333333330    0.7462635533333331 S2-
   0.3333333333333330    0.6666666666666661    0.9199624066666661 S2-
