Mo3 S6                                  
   1.0000000000000000     
     1.5921519154827339   -2.7576880109842050    0.0000000000000000
     1.5921519154827339    2.7576880109842050    0.0000000000000000
     0.0000000000000000    0.0000000000000000   19.4462951388160832
   Mo   S 
     3     6
Direct
  0.6666666666666643  0.3333333333333357  0.3331085448148770
  0.3333333333333357  0.6666666666666643  0.6664418781482127
  0.0000000000000000  0.0000000000000000  0.9997752114815484
  0.3333333333333357  0.6666666666666643  0.0800247055554451
  0.0000000000000000  0.0000000000000000  0.2528677496296652
  0.0000000000000000  0.0000000000000000  0.4133580388887808
  0.6666666666666643  0.3333333333333357  0.5862010829630009
  0.6666666666666643  0.3333333333333357  0.7466913722221165
  0.3333333333333357  0.6666666666666643  0.9195344162963295

  0.00000000E+00  0.00000000E+00  0.00000000E+00
  0.00000000E+00  0.00000000E+00  0.00000000E+00
  0.00000000E+00  0.00000000E+00  0.00000000E+00
  0.00000000E+00  0.00000000E+00  0.00000000E+00
  0.00000000E+00  0.00000000E+00  0.00000000E+00
  0.00000000E+00  0.00000000E+00  0.00000000E+00
  0.00000000E+00  0.00000000E+00  0.00000000E+00
  0.00000000E+00  0.00000000E+00  0.00000000E+00
  0.00000000E+00  0.00000000E+00  0.00000000E+00
