ISTART = 0 
ICHARG = 1

ENMAX = 500  
PREC = Accurate
ALGO = Fast
NELM = 100
ISMEAR = 0
SIGMA = 1E-2

LORBIT = 11

geometry

EDIFF  = 1E-7

functional
IVDW = 12

ISPIN = 2
