Mo3 S6                                  
   1.0000000000000000     
     1.5921519154827339   -2.7576880109842050    0.0000000000000000
     1.5921519154827339    2.7576880109842050    0.0000000000000000
     0.0000000000000000    0.0000000000000000   19.4462951388160832
   Mo   S 
     3     6
Direct
  0.6666666666666643  0.3333333333333357  0.3331085448148786
  0.3333333333333357  0.6666666666666643  0.6664418781482143
 -0.0000000000000000 -0.0000000000000000  0.9997752114815500
  0.3333333333333357  0.6666666666666643  0.0800247055554484
 -0.0000000000000000 -0.0000000000000000  0.2528677496296673
  0.0000000000000000  0.0000000000000000  0.4133580388887841
  0.6666666666666643  0.3333333333333357  0.5862010829630030
  0.6666666666666643  0.3333333333333357  0.7466913722221198
  0.3333333333333357  0.6666666666666643  0.9195344162963316

  0.00000000E+00  0.00000000E+00  0.00000000E+00
  0.00000000E+00  0.00000000E+00  0.00000000E+00
  0.00000000E+00  0.00000000E+00  0.00000000E+00
  0.00000000E+00  0.00000000E+00  0.00000000E+00
  0.00000000E+00  0.00000000E+00  0.00000000E+00
  0.00000000E+00  0.00000000E+00  0.00000000E+00
  0.00000000E+00  0.00000000E+00  0.00000000E+00
  0.00000000E+00  0.00000000E+00  0.00000000E+00
  0.00000000E+00  0.00000000E+00  0.00000000E+00
